nbNodes = 12;
nbVehi = 3;
nbServi = 4;

e = 
 [|    0,  209,  202,  312,  235,  400,  320,  227,   31,  119,  122,    0,
 |    0,  435,  107,  403,  255,  364,  464,  274,   96,  247,   40,    0,
 |    0,  345,   35,   77,  408,  214,  343,  383,  424,  340,  211,    0,
 |    0,  308,  360,  426,  237,  337,  359,  156,  322,   24,  474,    0,
 |];

l = 
 [| 480, 272, 314, 427, 315, 464, 387, 337, 104, 224, 240, 480,
 | 480, 506, 218, 496, 320, 471, 546, 392, 210, 353, 139, 480,
 | 480, 464, 105, 194, 491, 283, 458, 469, 496, 436, 309, 480,
 | 480, 421, 438, 502, 342, 425, 476, 228, 398, 114, 588, 480,
 |];

a = 
 [|  1,  1,  1,  1,
 |  1,  1,  1,  1,
 |  1,  1,  1,  1,
 |];

p = array3d(1..nbNodes,1..nbVehi,1..nbServi,
[  0,  0,  0,  0,	  0,  0,  0,  0,	  0,  0,  0,  0,	
 12, 18, 38, 39,	 21, 28, 45, 40,	 19, 23, 25, 38,	
 22, 10, 18, 13,	 41, 28, 23, 24,	 40, 37, 22, 11,	
 42, 22, 41, 17,	 42, 41, 11, 27,	 53, 37, 23, 17,	
 46, 42, 46, 15,	 28, 14, 35, 16,	 19, 26, 48, 29,	
 26, 43, 12, 42,	 36, 18, 43, 33,	 20, 37, 30, 28,	
 17, 19, 19, 30,	 31, 20, 19, 10,	 48, 35, 38, 35,	
 34, 52, 11, 28,	 22, 20, 10, 47,	 20, 18, 45, 23,	
 22, 51, 15, 42,	 32, 40, 45, 31,	 45, 50, 45, 35,	
 20, 36, 25, 40,	 11, 58, 13, 24,	 24, 55, 49, 31,	
 12, 28, 41, 15,	 17, 60, 10, 11,	 57, 66, 21, 49,	
  0,  0,  0,  0,	  0,  0,  0,  0,	  0,  0,  0,  0,	
]);

rs = 
[|true,true,true,true,
 |true,false,false,false,
 |true,false,false,false,
 |false,false,true,false,
 |true,false,false,false,
 |false,true,false,false,
 |false,false,true,false,
 |false,false,true,false,
 |false,false,false,true,
 |false,true,false,false,
 |false,false,true,false,
 |true,true,true,true,
 |];

d=[|0, 4, 7, 3, 8, 7, 13, 0, 9, 6, 0, 0, 
|4, 0, 4, 7, 10, 4, 13, 4, 10, 8, 4, 4, 
|7, 4, 0, 10, 10, 7, 10, 7, 14, 8, 7, 7, 
|3, 7, 10, 0, 6, 11, 13, 3, 11, 5, 3, 3, 
|8, 10, 10, 6, 0, 15, 8, 8, 17, 2, 8, 8, 
|7, 4, 7, 11, 15, 0, 17, 7, 8, 12, 7, 7, 
|13, 13, 10, 13, 8, 17, 0, 13, 22, 8, 13, 13, 
|0, 4, 7, 3, 8, 7, 13, 0, 9, 6, 0, 0, 
|9, 10, 14, 11, 17, 8, 22, 9, 0, 15, 9, 9, 
|6, 8, 8, 5, 2, 12, 8, 6, 15, 0, 6, 6, 
|0, 4, 7, 3, 8, 7, 13, 0, 9, 6, 0, 0, 
|0, 4, 7, 3, 8, 7, 13, 0, 9, 6, 0, 0, 
|];

